NAME : local_10
TYPE : ATSP
DIMENSION : 19
EDGE_WEIGHT_TYPE : EXPLICIT
EDGE_WEIGHT_FORMAT : FULL_MATRIX
EDGE_WEIGHT_SECTION
0 415 710 889 10000000 10000000 10000000 10000000 685 10000000 702 10000000 811 762 10000000 10000000 777 10000000 432 
0 0 1035 609 10000000 10000000 10000000 10000000 723 10000000 887 10000000 825 392 10000000 10000000 10000000 10000000 802 
0 1035 0 10000000 703 10000000 10000000 913 10000000 10000000 10000000 857 10000000 10000000 678 10000000 215 776 495 
0 609 10000000 0 10000000 769 10000000 10000000 622 10000000 913 10000000 630 286 10000000 721 10000000 10000000 10000000 
0 10000000 703 10000000 0 10000000 10000000 247 10000000 10000000 10000000 249 10000000 10000000 365 10000000 679 802 862 
0 10000000 10000000 769 10000000 0 10000000 10000000 782 10000000 976 10000000 675 10000000 10000000 831 10000000 10000000 10000000 
0 10000000 10000000 10000000 10000000 10000000 0 10000000 10000000 564 739 10000000 10000000 10000000 10000000 10000000 10000000 950 10000000 
0 10000000 913 10000000 247 10000000 10000000 0 10000000 10000000 10000000 359 10000000 10000000 585 10000000 849 806 1026 
0 723 10000000 622 10000000 782 10000000 10000000 0 10000000 297 10000000 127 729 10000000 10000000 10000000 10000000 778 
0 10000000 10000000 10000000 10000000 10000000 564 10000000 10000000 0 995 10000000 10000000 10000000 10000000 10000000 10000000 513 958 
0 887 10000000 913 10000000 976 739 10000000 297 995 0 10000000 353 988 10000000 10000000 10000000 10000000 676 
0 10000000 857 10000000 249 10000000 10000000 359 10000000 10000000 10000000 0 10000000 10000000 294 837 880 10000000 10000000 
0 825 10000000 630 10000000 675 10000000 10000000 127 10000000 353 10000000 0 780 10000000 10000000 10000000 10000000 917 
0 392 10000000 286 10000000 10000000 10000000 10000000 729 10000000 988 10000000 780 0 10000000 907 10000000 10000000 10000000 
0 10000000 678 10000000 365 10000000 10000000 585 10000000 10000000 10000000 294 10000000 10000000 0 897 762 10000000 986 
0 10000000 10000000 721 10000000 831 10000000 10000000 10000000 10000000 10000000 837 10000000 910 922 0 10000000 10000000 10000000 
0 10000000 215 10000000 679 10000000 10000000 849 10000000 10000000 10000000 880 10000000 10000000 762 10000000 0 568 442 
0 10000000 776 10000000 802 10000000 950 806 10000000 513 10000000 10000000 10000000 10000000 10000000 10000000 568 0 653 
0 10000000 10000000 10000000 10000000 10000000 10000000 10000000 10000000 10000000 10000000 10000000 10000000 10000000 10000000 10000000 10000000 10000000 0 
EOF